Gurobi 12.0.3:   lim:time = 14400
  mip:bestbound = 1
Set parameter LogToConsole to value 1
  tech:outlev = 1
Set parameter InfUnbdInfo to value 1
Gurobi Optimizer version 12.0.3 build v12.0.3rc0 (win64 - Windows 10.0 (19045.2))

CPU model: Intel(R) Core(TM) i7-10700 CPU @ 2.90GHz, instruction set [SSE2|AVX|AVX2]
Thread count: 8 physical cores, 16 logical processors, using up to 16 threads

Non-default parameters:
TimeLimit  14400
InfUnbdInfo  1

Optimize a model with 327 rows, 556 columns and 2814 nonzeros
Model fingerprint: 0x768177e0
Model has 3 quadratic constraints
Variable types: 30 continuous, 526 integer (0 binary)
Coefficient statistics:
  Matrix range     [1e+00, 1e+05]
  QMatrix range    [1e+00, 1e+00]
  QLMatrix range   [4e+00, 2e+01]
  Objective range  [5e+00, 1e+02]
  Bounds range     [1e+00, 1e+02]
  RHS range        [1e+00, 1e+05]
  QRHS range       [1e+02, 1e+02]
Presolve removed 35 rows and 44 columns
Presolve time: 0.02s
Presolved: 631 rows, 782 columns, 3998 nonzeros
Variable types: 15 continuous, 767 integer (730 binary)
Found heuristic solution: objective 646.1600000

Root relaxation: objective 1.065991e+02, 36 iterations, 0.00 seconds (0.00 work units)

    Nodes    |    Current Node    |     Objective Bounds      |     Work
 Expl Unexpl |  Obj  Depth IntInf | Incumbent    BestBd   Gap | It/Node Time

     0     0  106.59906    0   21  646.16000  106.59906  83.5%     -    0s
H    0     0                     351.6300000  106.59906  69.7%     -    0s
     0     0  223.10629    0   28  351.63000  223.10629  36.6%     -    0s
     0     0  250.05698    0   32  351.63000  250.05698  28.9%     -    0s
     0     0  266.06000    0   22  351.63000  266.06000  24.3%     -    0s
H    0     0                     320.3900000  275.66000  14.0%     -    0s
     0     0  275.66000    0   33  320.39000  275.66000  14.0%     -    0s
     0     0  280.55500    0   24  320.39000  280.55500  12.4%     -    0s
H    0     0                     302.0600000  281.35000  6.86%     -    0s
     0     0  281.35000    0   27  302.06000  281.35000  6.86%     -    0s
     0     0  282.14500    0   21  302.06000  282.14500  6.59%     -    0s
     0     0  282.14500    0   18  302.06000  282.14500  6.59%     -    0s
H    0     0                     297.9700000  282.14500  5.31%     -    0s
H    0     0                     296.7900000  282.14500  4.93%     -    0s
     0     0  282.14500    0   34  296.79000  282.14500  4.93%     -    0s
     0     0  282.14500    0   26  296.79000  282.14500  4.93%     -    0s
     0     0  282.14500    0   21  296.79000  282.14500  4.93%     -    0s
     0     0  282.14500    0   21  296.79000  282.14500  4.93%     -    0s
     0     0  282.44000    0   17  296.79000  282.44000  4.84%     -    0s
H    0     0                     296.7100000  282.44000  4.81%     -    0s
     0     0  282.44000    0   17  296.71000  282.44000  4.81%     -    0s
     0     0  282.44000    0   17  296.71000  282.44000  4.81%     -    0s
     0     0  282.44000    0   17  296.71000  282.44000  4.81%     -    0s
     0     0  282.44000    0   16  296.71000  282.44000  4.81%     -    0s
     0     0  282.44000    0   16  296.71000  282.44000  4.81%     -    0s
     0     0  282.44000    0   21  296.71000  282.44000  4.81%     -    0s
     0     0  282.44000    0   31  296.71000  282.44000  4.81%     -    0s
     0     0  282.44000    0   24  296.71000  282.44000  4.81%     -    0s
     0     0  282.44000    0   21  296.71000  282.44000  4.81%     -    0s
     0     0  282.44000    0   21  296.71000  282.44000  4.81%     -    0s
     0     0  282.44000    0   17  296.71000  282.44000  4.81%     -    0s
     0     0  282.44000    0   17  296.71000  282.44000  4.81%     -    0s
     0     0  282.44000    0   17  296.71000  282.44000  4.81%     -    0s
     0     0  282.44000    0   17  296.71000  282.44000  4.81%     -    0s
     0     0  282.44000    0   17  296.71000  282.44000  4.81%     -    0s
     0     0  282.44000    0   16  296.71000  282.44000  4.81%     -    0s
     0     0  282.44000    0   16  296.71000  282.44000  4.81%     -    0s
     0     2  282.44000    0   16  296.71000  282.44000  4.81%     -    0s

Cutting planes:
  Learned: 15
  Gomory: 4
  Cover: 4
  Implied bound: 27
  Clique: 1
  MIR: 6
  Flow cover: 1
  Inf proof: 1
  Zero half: 2
  Mod-K: 1
  RLT: 19

Explored 174 nodes (3261 simplex iterations) in 0.38 seconds (0.25 work units)
Thread count was 16 (of 16 available processors)

Solution count 7: 296.71 296.79 297.97 ... 646.16

Optimal solution found (tolerance 1.00e-04)
Best objective 2.967100000000e+02, best bound 2.967100000000e+02, gap 0.0000%

AMPL MP initial flat model has 556 variables (0 integer, 526 binary);
Objectives: 1 linear; 
Constraints:  327 linear; 3 quadratic;

AMPL MP final model has 556 variables (0 integer, 526 binary);
Objectives: 1 linear; 
Constraints:  327 linear; 3 quadratic;


-----RESULTS INFO-----
running_time:  0.406
TC.best_bound:  296.71
TC:  296.71
MIP Gap (%):  0
=== Vehicle Routes ===
Vehicle 1: 0 → 9
Vehicle 1: 1 → 8
Vehicle 1: 2 → 1
Vehicle 1: 3 → 2
Vehicle 1: 4 → 18
Vehicle 1: 8 → 14
Vehicle 1: 9 → 3
Vehicle 1: 14 → 4
Vehicle 2: 0 → 18
Vehicle 3: 0 → 18

=== Full Vehicle Routes ===
Vehicle 1: 0 → 9 → 3 → 2 → 1 → 8 → 14 → 4 → 0 (83<100)
Vehicle 2: 0 → 0 (0<100)
Vehicle 3: 0 → 0 (0<100)
Arc used by MRT line: y variables:
Customer assigment to PL: u variables:
5 9
6 14
7 9
Node is served by regular vehicle: g variables:
1
2
3
4
8
9
14
Customer assigment to Home delivery: gm variables:
1
2
3
4
8
Node total demands: ntd variables:
1 4 1
2 24 1
3 7 1
4 12 1
7 0 0
8 1 1
15 0 0
16 0 0
17 0 0
9 11 1
10 0 0
11 0 0
12 0 0
13 0 0
14 24 1
Customer's demand delivered to PL: l variables:
5
6
7
Lockers load <= capacity:
0 <= 86
0 <= 73
0 <= 80
11 <= 75
0 <= 88
0 <= 71
0 <= 70
0 <= 99
24 <= 97
